NAME 
ROWS
 N  OBJ
 L  R0      
 L  R1      
 E  R2      
COLUMNS
    MARKER    'MARKER'                 'INTORG'
    I0(3)     OBJ       -155
    I0(3)     R0        -409
    I0(3)     R1        -639
    I0(3)     R2        320
    I1(3)     OBJ       -93
    I1(3)     R0        -294
    I1(3)     R1        -357
    I1(3)     R2        139
    I2(3)     OBJ       -6
    I2(3)     R0        -498
    I2(3)     R1        -167
    I2(3)     R2        20
    I3(3)     OBJ       -996
    I3(3)     R0        -149
    I3(3)     R1        -359
    I3(3)     R2        71
    I4(3)     OBJ       -279
    I4(3)     R0        -361
    I4(3)     R1        -667
    I4(3)     R2        265
    I5(3)     OBJ       -636
    I5(3)     R0        -787
    I5(3)     R1        -942
    I5(3)     R2        88
    I6(3)     OBJ       -174
    I6(3)     R0        -363
    I6(3)     R1        -737
    I6(3)     R2        100
    I7(3)     OBJ       -473
    I7(3)     R0        -32
    I7(3)     R1        -937
    I7(3)     R2        28
    I8(3)     OBJ       -565
    I8(3)     R0        -918
    I8(3)     R1        -742
    I8(3)     R2        329
    I9(3)     OBJ       -399
    I9(3)     R0        -659
    I9(3)     R1        -331
    I9(3)     R2        601
    I10(3)    OBJ       -855
    I10(3)    R0        -122
    I10(3)    R1        -747
    I10(3)    R2        354
    I11(3)    OBJ       -841
    I11(3)    R0        -72
    I11(3)    R1        -150
    I11(3)    R2        968
    I12(3)    OBJ       -720
    I12(3)    R0        -751
    I12(3)    R1        -624
    I12(3)    R2        958
    I13(3)    OBJ       -310
    I13(3)    R0        -127
    I13(3)    R1        -245
    I13(3)    R2        521
    I14(3)    OBJ       -776
    I14(3)    R0        -68
    I14(3)    R1        -299
    I14(3)    R2        326
    I15(3)    OBJ       -378
    I15(3)    R0        -30
    I15(3)    R1        -985
    I15(3)    R2        624
    I16(3)    OBJ       -271
    I16(3)    R0        -763
    I16(3)    R1        -31
    I16(3)    R2        463
    I17(3)    OBJ       -800
    I17(3)    R0        -241
    I17(3)    R1        -661
    I17(3)    R2        62
    I18(3)    OBJ       -595
    I18(3)    R0        -502
    I18(3)    R1        -17
    I18(3)    R2        561
    I19(3)    OBJ       -811
    I19(3)    R0        -327
    I19(3)    R1        -949
    I19(3)    R2        204
    I20(1)    R2        1
    MARKER    'MARKER'                 'INTEND'
RHS
    RHS1      R0        -4236
    RHS1      R1        -7564
    RHS1      R2        3501
BOUNDS
 UP BND1      I0(3)     1
 UP BND1      I1(3)     1
 UP BND1      I2(3)     1
 UP BND1      I3(3)     1
 UP BND1      I4(3)     1
 UP BND1      I5(3)     1
 UP BND1      I6(3)     1
 UP BND1      I7(3)     1
 UP BND1      I8(3)     1
 UP BND1      I9(3)     1
 UP BND1      I10(3)    1
 UP BND1      I11(3)    1
 UP BND1      I12(3)    1
 UP BND1      I13(3)    1
 UP BND1      I14(3)    1
 UP BND1      I15(3)    1
 UP BND1      I16(3)    1
 UP BND1      I17(3)    1
 UP BND1      I18(3)    1
 UP BND1      I19(3)    1
 LI BND1      I20(1)    0
ENDATA
